SCIP version 8.0.0 [precision: 8 byte] [memory: block] [mode: optimized] [LP solver: SoPlex 6.0.0] [GitHash: a740f0891e]
Copyright (C) 2002-2021 Konrad-Zuse-Zentrum fuer Informationstechnik Berlin (ZIB)

read problem </home/danilo/cbc-test-set/v150_d50_2hopCDS.mps.gz> ...

original problem has 150 variables (150 bin, 0 int, 0 impl, 0 cont) and 5587 constraints
solve problem ...

presolving:
   Deactivated symmetry handling methods, since SCIP was built without symmetry detector (SYM=none).
presolving (0 rounds: 0 fast, 0 medium, 0 exhaustive):
 0 deleted vars, 0 deleted constraints, 0 added constraints, 0 tightened bounds, 0 added holes, 0 changed sides, 0 changed coefficients
 0 implications, 0 cliques
presolved problem has 150 variables (150 bin, 0 int, 0 impl, 0 cont) and 5587 constraints
   5587 constraints of type <linear>
transformed objective value is always integral (scale: 1)
Presolving Time: 0.01

 time | node  | left  |LP iter|LP it/n|mem/heur|mdpt |vars |cons |rows |cuts |sepa|confs|strbr|  dualbound   | primalbound  |  gap   | compl. 
  0.4s|     1 |     0 |  1119 |     - |    65M |   0 | 150 |5587 |5587 |   0 |  0 |   0 |   0 | 5.244476e+00 |      --      |    Inf | unknown
* 0.6s|     1 |     0 |  1119 |     - |strongbr|   0 | 150 |5587 |5587 |   0 |  1 |   0 |   0 | 5.244476e+00 | 1.000000e+02 |1806.77%| unknown
* 1.0s|     1 |     0 |  1119 |     - |strongbr|   0 | 150 |5587 |5587 |   0 |  1 |   0 |   1 | 5.244476e+00 | 1.000000e+02 |1806.77%| unknown
* 2.4s|     1 |     0 |  1119 |     - |strongbr|   0 | 150 |5587 |5587 |   0 |  1 |   0 |   7 | 5.244476e+00 | 9.900000e+01 |1787.70%| unknown
* 2.8s|     1 |     0 |  1119 |     - |strongbr|   0 | 150 |5587 |5587 |   0 |  1 |   0 |   8 | 5.244476e+00 | 9.700000e+01 |1749.57%| unknown
  5.0s|     1 |     2 |  1119 |     - |    65M |   0 | 150 |5587 |5587 |   0 |  1 |   0 |  19 | 5.438343e+00 | 9.700000e+01 |1683.63%| unknown

SCIP Status        : solving was interrupted [node limit reached]
Solving Time (sec) : 5.04
Solving Nodes      : 1
Primal Bound       : +9.70000000000000e+01 (21 solutions)
Dual Bound         : +5.43834345493701e+00
Gap                : 1683.63 %
primal solution:
objective value:                                   97
C148                                                1 	(obj:1)
C2                                                  1 	(obj:1)
C4                                                  1 	(obj:1)
C7                                                  1 	(obj:1)
C9                                                  1 	(obj:1)
C10                                                 1 	(obj:1)
C11                                                 1 	(obj:1)
C12                                                 1 	(obj:1)
C13                                                 1 	(obj:1)
C15                                                 1 	(obj:1)
C18                                                 1 	(obj:1)
C19                                                 1 	(obj:1)
C21                                                 1 	(obj:1)
C22                                                 1 	(obj:1)
C23                                                 1 	(obj:1)
C25                                                 1 	(obj:1)
C26                                                 1 	(obj:1)
C28                                                 1 	(obj:1)
C29                                                 1 	(obj:1)
C31                                                 1 	(obj:1)
C33                                                 1 	(obj:1)
C35                                                 1 	(obj:1)
C36                                                 1 	(obj:1)
C37                                                 1 	(obj:1)
C38                                                 1 	(obj:1)
C39                                                 1 	(obj:1)
C40                                                 1 	(obj:1)
C42                                                 1 	(obj:1)
C43                                                 1 	(obj:1)
C45                                                 1 	(obj:1)
C48                                                 1 	(obj:1)
C51                                                 1 	(obj:1)
C53                                                 1 	(obj:1)
C55                                                 1 	(obj:1)
C57                                                 1 	(obj:1)
C59                                                 1 	(obj:1)
C60                                                 1 	(obj:1)
C63                                                 1 	(obj:1)
C65                                                 1 	(obj:1)
C66                                                 1 	(obj:1)
C67                                                 1 	(obj:1)
C69                                                 1 	(obj:1)
C70                                                 1 	(obj:1)
C71                                                 1 	(obj:1)
C72                                                 1 	(obj:1)
C73                                                 1 	(obj:1)
C74                                                 1 	(obj:1)
C75                                                 1 	(obj:1)
C78                                                 1 	(obj:1)
C80                                                 1 	(obj:1)
C82                                                 1 	(obj:1)
C83                                                 1 	(obj:1)
C85                                                 1 	(obj:1)
C86                                                 1 	(obj:1)
C87                                                 1 	(obj:1)
C88                                                 1 	(obj:1)
C90                                                 1 	(obj:1)
C91                                                 1 	(obj:1)
C92                                                 1 	(obj:1)
C93                                                 1 	(obj:1)
C94                                                 1 	(obj:1)
C97                                                 1 	(obj:1)
C98                                                 1 	(obj:1)
C102                                                1 	(obj:1)
C103                                                1 	(obj:1)
C104                                                1 	(obj:1)
C106                                                1 	(obj:1)
C107                                                1 	(obj:1)
C109                                                1 	(obj:1)
C110                                                1 	(obj:1)
C111                                                1 	(obj:1)
C112                                                1 	(obj:1)
C114                                                1 	(obj:1)
C115                                                1 	(obj:1)
C116                                                1 	(obj:1)
C117                                                1 	(obj:1)
C118                                                1 	(obj:1)
C120                                                1 	(obj:1)
C122                                                1 	(obj:1)
C124                                                1 	(obj:1)
C125                                                1 	(obj:1)
C126                                                1 	(obj:1)
C127                                                1 	(obj:1)
C128                                                1 	(obj:1)
C129                                                1 	(obj:1)
C132                                                1 	(obj:1)
C133                                                1 	(obj:1)
C134                                                1 	(obj:1)
C135                                                1 	(obj:1)
C136                                                1 	(obj:1)
C138                                                1 	(obj:1)
C139                                                1 	(obj:1)
C141                                                1 	(obj:1)
C142                                                1 	(obj:1)
C145                                                1 	(obj:1)
C146                                                1 	(obj:1)
C147                                                1 	(obj:1)
Statistics:
SCIP Status        : solving was interrupted [node limit reached]
Total Time         :       5.14
  solving          :       5.04
  presolving       :       0.01 (included in solving)
  reading          :       0.10
  copying          :       0.00 (0 times copied the problem)
Original Problem   :
  Problem name     : v150_d50_2hopCDS.lp
  Variables        : 150 (150 binary, 0 integer, 0 implicit integer, 0 continuous)
  Constraints      : 5587 initial, 5587 maximal
  Objective        : minimize, 150 non-zeros (abs.min = 1, abs.max = 1)
Presolved Problem  :
  Problem name     : t_v150_d50_2hopCDS.lp
  Variables        : 150 (150 binary, 0 integer, 0 implicit integer, 0 continuous)
  Constraints      : 5587 initial, 5587 maximal
  Objective        : minimize, 150 non-zeros (abs.min = 1, abs.max = 1)
  Nonzeros         : 206279 constraint, 0 clique table
Presolvers         :   ExecTime  SetupTime  Calls  FixedVars   AggrVars   ChgTypes  ChgBounds   AddHoles    DelCons    AddCons   ChgSides   ChgCoefs
  boundshift       :       0.00       0.00      0          0          0          0          0          0          0          0          0          0
  convertinttobin  :       0.00       0.00      0          0          0          0          0          0          0          0          0          0
  domcol           :       0.00       0.00      0          0          0          0          0          0          0          0          0          0
  dualagg          :       0.00       0.00      0          0          0          0          0          0          0          0          0          0
  dualcomp         :       0.00       0.00      0          0          0          0          0          0          0          0          0          0
  dualinfer        :       0.00       0.00      0          0          0          0          0          0          0          0          0          0
  dualsparsify     :       0.00       0.00      0          0          0          0          0          0          0          0          0          0
  gateextraction   :       0.00       0.00      0          0          0          0          0          0          0          0          0          0
  implics          :       0.00       0.00      0          0          0          0          0          0          0          0          0          0
  inttobinary      :       0.00       0.00      0          0          0          0          0          0          0          0          0          0
  qpkktref         :       0.00       0.00      0          0          0          0          0          0          0          0          0          0
  redvub           :       0.00       0.00      0          0          0          0          0          0          0          0          0          0
  sparsify         :       0.00       0.00      0          0          0          0          0          0          0          0          0          0
  stuffing         :       0.00       0.00      0          0          0          0          0          0          0          0          0          0
  trivial          :       0.00       0.00      0          0          0          0          0          0          0          0          0          0
  tworowbnd        :       0.00       0.00      0          0          0          0          0          0          0          0          0          0
  dualfix          :       0.00       0.00      0          0          0          0          0          0          0          0          0          0
  genvbounds       :       0.00       0.00      0          0          0          0          0          0          0          0          0          0
  probing          :       0.00       0.00      0          0          0          0          0          0          0          0          0          0
  pseudoobj        :       0.00       0.00      0          0          0          0          0          0          0          0          0          0
  symmetry         :       0.00       0.00      0          0          0          0          0          0          0          0          0          0
  vbounds          :       0.00       0.00      0          0          0          0          0          0          0          0          0          0
  linear           :       0.00       0.02      0          0          0          0          0          0          0          0          0          0
  benders          :       0.00       0.00      0          0          0          0          0          0          0          0          0          0
  components       :       0.00       0.00      0          0          0          0          0          0          0          0          0          0
  root node        :          -          -      -          0          -          -          0          -          -          -          -          -
Constraints        :     Number  MaxNumber  #Separate #Propagate    #EnfoLP    #EnfoRelax  #EnfoPS    #Check   #ResProp    Cutoffs    DomReds       Cuts    Applied      Conss   Children
  benderslp        :          0          0          0          0          1          0          0         23          0          0          0          0          0          0          0
  integral         :          0          0          0          0          1          0          0         23          0          0          0          0          0          0          2
  linear           :       5587       5587          1         39          0          0          0         21          0          0          0          0          0          0          0
  benders          :          0          0          0          0          0          0          0         22          0          0          0          0          0          0          0
  countsols        :          0          0          0          0          0          0          0         22          0          0          0          0          0          0          0
  components       :          0          0          0          0          0          0          0          0          0          0          0          0          0          0          0
Constraint Timings :  TotalTime  SetupTime   Separate  Propagate     EnfoLP     EnfoPS     EnfoRelax   Check    ResProp    SB-Prop
  benderslp        :       0.00       0.00       0.00       0.00       0.00       0.00       0.00       0.00       0.00       0.00
  integral         :       4.60       0.00       0.00       0.00       4.60       0.00       0.00       0.00       0.00       0.00
  linear           :       0.06       0.02       0.01       0.01       0.00       0.00       0.00       0.00       0.00       0.01
  benders          :       0.00       0.00       0.00       0.00       0.00       0.00       0.00       0.00       0.00       0.00
  countsols        :       0.00       0.00       0.00       0.00       0.00       0.00       0.00       0.00       0.00       0.00
  components       :       0.00       0.00       0.00       0.00       0.00       0.00       0.00       0.00       0.00       0.00
Propagators        : #Propagate   #ResProp    Cutoffs    DomReds
  dualfix          :          1          0          0          0
  genvbounds       :          0          0          0          0
  nlobbt           :          0          0          0          0
  obbt             :          0          0          0          0
  probing          :          0          0          0          0
  pseudoobj        :          3          0          0          0
  redcost          :          2          0          0          0
  rootredcost      :          0          0          0          0
  symmetry         :          0          0          0          0
  vbounds          :          0          0          0          0
Propagator Timings :  TotalTime  SetupTime   Presolve  Propagate    ResProp    SB-Prop
  dualfix          :       0.00       0.00       0.00       0.00       0.00       0.00
  genvbounds       :       0.00       0.00       0.00       0.00       0.00       0.00
  nlobbt           :       0.00       0.00       0.00       0.00       0.00       0.00
  obbt             :       0.00       0.00       0.00       0.00       0.00       0.00
  probing          :       0.00       0.00       0.00       0.00       0.00       0.00
  pseudoobj        :       0.00       0.00       0.00       0.00       0.00       0.00
  redcost          :       0.00       0.00       0.00       0.00       0.00       0.00
  rootredcost      :       0.00       0.00       0.00       0.00       0.00       0.00
  symmetry         :       0.00       0.00       0.00       0.00       0.00       0.00
  vbounds          :       0.00       0.00       0.00       0.00       0.00       0.00
Conflict Analysis  :       Time      Calls    Success    DomReds  Conflicts   Literals    Reconvs ReconvLits   Dualrays   Nonzeros   LP Iters   (pool size: [--,--])
  propagation      :       0.00          0          0          -          0        0.0          0        0.0          -          -          -
  infeasible LP    :       0.00          0          0          -          0        0.0          0        0.0          0        0.0          0
  bound exceed. LP :       0.00          0          0          -          0        0.0          0        0.0          0        0.0          0
  strong branching :       0.00          0          0          -          0        0.0          0        0.0          -          -          0
  pseudo solution  :       0.00          0          0          -          0        0.0          0        0.0          -          -          -
  applied globally :       0.00          -          -          0          0        0.0          -          -          0          -          -
  applied locally  :          -          -          -          0          0        0.0          -          -          0          -          -
Separators         :   ExecTime  SetupTime      Calls    Cutoffs    DomReds       Cuts    Applied      Conss
  cut pool         :       0.00                     0          -          -          0          -          -    (maximal pool size: 0)
  aggregation      :       0.00       0.00          0          0          0          0          0          0
  > cmir           :          -          -          -          -          -          -          0          -
  > flowcover      :          -          -          -          -          -          -          0          -
  > knapsackcover  :          -          -          -          -          -          -          0          -
  cgmip            :       0.00       0.00          0          0          0          0          0          0
  clique           :       0.00       0.00          0          0          0          0          0          0
  closecuts        :       0.00       0.00          0          0          0          0          0          0
  convexproj       :       0.00       0.00          0          0          0          0          0          0
  disjunctive      :       0.00       0.00          0          0          0          0          0          0
  eccuts           :       0.00       0.00          0          0          0          0          0          0
  gauge            :       0.00       0.00          0          0          0          0          0          0
  gmi              :       0.00       0.00          0          0          0          0          0          0
  gomory           :       0.00       0.00          0          0          0          0          0          0
  > gomorymi       :          -          -          -          -          -          -          0          -
  > strongcg       :          -          -          -          -          -          -          0          -
  impliedbounds    :       0.00       0.00          0          0          0          0          0          0
  interminor       :       0.00       0.00          0          0          0          0          0          0
  intobj           :       0.00       0.00          0          0          0          0          0          0
  mcf              :       0.00       0.00          0          0          0          0          0          0
  minor            :       0.00       0.00          0          0          0          0          0          0
  mixing           :       0.00       0.00          0          0          0          0          0          0
  oddcycle         :       0.00       0.00          0          0          0          0          0          0
  rapidlearning    :       0.00       0.00          0          0          0          0          0          0
  rlt              :       0.00       0.00          0          0          0          0          0          0
  zerohalf         :       0.00       0.00          0          0          0          0          0          0
Cutselectors       :   ExecTime  SetupTime
  hybrid           :       0.00       0.00
Pricers            :   ExecTime  SetupTime      Calls       Vars
  problem variables:       0.00          -          0          0
Branching Rules    :   ExecTime  SetupTime   BranchLP  BranchExt   BranchPS    Cutoffs    DomReds       Cuts      Conss   Children
  allfullstrong    :       0.00       0.00          0          0          0          0          0          0          0          0
  cloud            :       0.00       0.00          0          0          0          0          0          0          0          0
  distribution     :       0.00       0.00          0          0          0          0          0          0          0          0
  fullstrong       :       0.00       0.00          0          0          0          0          0          0          0          0
  inference        :       0.00       0.00          0          0          0          0          0          0          0          0
  leastinf         :       0.00       0.00          0          0          0          0          0          0          0          0
  lookahead        :       0.00       0.00          0          0          0          0          0          0          0          0
  mostinf          :       0.00       0.00          0          0          0          0          0          0          0          0
  multaggr         :       0.00       0.00          0          0          0          0          0          0          0          0
  nodereopt        :       0.00       0.00          0          0          0          0          0          0          0          0
  pscost           :       0.00       0.00          0          0          0          0          0          0          0          0
  random           :       0.00       0.00          0          0          0          0          0          0          0          0
  relpscost        :       4.60       0.00          1          0          0          0          0          0          0          2
  vanillafullstrong:       0.00       0.00          0          0          0          0          0          0          0          0
Primal Heuristics  :   ExecTime  SetupTime      Calls      Found       Best
  LP solutions     :       0.00          -          -          0          0
  relax solutions  :       0.00          -          -          0          0
  pseudo solutions :       0.00          -          -          0          0
  strong branching :       0.00          -          -         21          3
  actconsdiving    :       0.00       0.00          0          0          0
  adaptivediving   :       0.00       0.00          0          0          0
  alns             :       0.00       0.00          0          0          0
  bound            :       0.00       0.00          0          0          0
  clique           :       0.00       0.00          0          0          0
  coefdiving       :       0.00       0.00          0          0          0
  completesol      :       0.00       0.00          0          0          0
  conflictdiving   :       0.00       0.00          0          0          0
  crossover        :       0.00       0.00          0          0          0
  dins             :       0.00       0.00          0          0          0
  distributiondivin:       0.00       0.00          0          0          0
  dps              :       0.00       0.00          0          0          0
  dualval          :       0.00       0.00          0          0          0
  farkasdiving     :       0.00       0.00          0          0          0
  feaspump         :       0.00       0.00          0          0          0
  fixandinfer      :       0.00       0.00          0          0          0
  fracdiving       :       0.00       0.00          0          0          0
  gins             :       0.00       0.00          0          0          0
  guideddiving     :       0.00       0.00          0          0          0
  indicator        :       0.00       0.00          0          0          0
  intdiving        :       0.00       0.00          0          0          0
  intshifting      :       0.00       0.00          0          0          0
  linesearchdiving :       0.00       0.00          0          0          0
  localbranching   :       0.00       0.00          0          0          0
  locks            :       0.00       0.00          0          0          0
  lpface           :       0.00       0.00          0          0          0
  mpec             :       0.00       0.00          0          0          0
  multistart       :       0.00       0.00          0          0          0
  mutation         :       0.00       0.00          0          0          0
  nlpdiving        :       0.00       0.00          0          0          0
  objpscostdiving  :       0.00       0.00          0          0          0
  octane           :       0.00       0.00          0          0          0
  ofins            :       0.00       0.00          0          0          0
  oneopt           :       0.00       0.00          0          0          0
  padm             :       0.00       0.00          0          0          0
  proximity        :       0.00       0.00          0          0          0
  pscostdiving     :       0.00       0.00          0          0          0
  randrounding     :       0.00       0.00          0          0          0
  rens             :       0.00       0.00          0          0          0
  reoptsols        :       0.00       0.00          0          0          0
  repair           :       0.00       0.00          0          0          0
  rins             :       0.00       0.00          0          0          0
  rootsoldiving    :       0.00       0.00          0          0          0
  rounding         :       0.00       0.00          0          0          0
  shiftandpropagate:       0.00       0.00          0          0          0
  shifting         :       0.00       0.00          0          0          0
  simplerounding   :       0.00       0.00          0          0          0
  subnlp           :       0.00       0.00          0          0          0
  trivial          :       0.00       0.00          0          0          0
  trivialnegation  :       0.00       0.00          0          0          0
  trustregion      :       0.00       0.00          0          0          0
  trysol           :       0.00       0.00          0          0          0
  twoopt           :       0.00       0.00          0          0          0
  undercover       :       0.00       0.00          0          0          0
  vbounds          :       0.00       0.00          0          0          0
  veclendiving     :       0.00       0.00          0          0          0
  zeroobj          :       0.00       0.00          0          0          0
  zirounding       :       0.00       0.00          0          0          0
  other solutions  :          -          -          -          0          -
Diving (single)    :      Calls      Nodes   LP Iters Backtracks  Conflicts   MinDepth   MaxDepth   AvgDepth  RoundSols  NLeafSols  MinSolDpt  MaxSolDpt  AvgSolDpt
  actconsdiving    :          0          -          -          -          -          -          -          -          -          -          -          -          -
  coefdiving       :          0          -          -          -          -          -          -          -          -          -          -          -          -
  conflictdiving   :          0          -          -          -          -          -          -          -          -          -          -          -          -
  distributiondivin:          0          -          -          -          -          -          -          -          -          -          -          -          -
  farkasdiving     :          0          -          -          -          -          -          -          -          -          -          -          -          -
  fracdiving       :          0          -          -          -          -          -          -          -          -          -          -          -          -
  guideddiving     :          0          -          -          -          -          -          -          -          -          -          -          -          -
  linesearchdiving :          0          -          -          -          -          -          -          -          -          -          -          -          -
  pscostdiving     :          0          -          -          -          -          -          -          -          -          -          -          -          -
  veclendiving     :          0          -          -          -          -          -          -          -          -          -          -          -          -
Diving (adaptive)  :      Calls      Nodes   LP Iters Backtracks  Conflicts   MinDepth   MaxDepth   AvgDepth  RoundSols  NLeafSols  MinSolDpt  MaxSolDpt  AvgSolDpt
  actconsdiving    :          0          -          -          -          -          -          -          -          -          -          -          -          -
  coefdiving       :          0          -          -          -          -          -          -          -          -          -          -          -          -
  conflictdiving   :          0          -          -          -          -          -          -          -          -          -          -          -          -
  distributiondivin:          0          -          -          -          -          -          -          -          -          -          -          -          -
  farkasdiving     :          0          -          -          -          -          -          -          -          -          -          -          -          -
  fracdiving       :          0          -          -          -          -          -          -          -          -          -          -          -          -
  guideddiving     :          0          -          -          -          -          -          -          -          -          -          -          -          -
  linesearchdiving :          0          -          -          -          -          -          -          -          -          -          -          -          -
  pscostdiving     :          0          -          -          -          -          -          -          -          -          -          -          -          -
  veclendiving     :          0          -          -          -          -          -          -          -          -          -          -          -          -
Neighborhoods      :      Calls  SetupTime  SolveTime SolveNodes       Sols       Best       Exp3  EpsGreedy        UCB TgtFixRate  Opt  Inf Node Stal  Sol  Usr Othr Actv
  rens             :          0       0.00       0.00          0          0          0    0.00000   -1.00000    1.00000      0.900    0    0    0    0    0    0    0    1
  rins             :          0       0.00       0.00          0          0          0    0.00000   -1.00000    1.00000      0.900    0    0    0    0    0    0    0    1
  mutation         :          0       0.00       0.00          0          0          0    0.00000   -1.00000    1.00000      0.900    0    0    0    0    0    0    0    1
  localbranching   :          0       0.00       0.00          0          0          0    0.00000   -1.00000    1.00000      0.900    0    0    0    0    0    0    0    1
  crossover        :          0       0.00       0.00          0          0          0    0.00000   -1.00000    1.00000      0.900    0    0    0    0    0    0    0    1
  proximity        :          0       0.00       0.00          0          0          0    0.00000   -1.00000    1.00000      0.900    0    0    0    0    0    0    0    1
  zeroobjective    :          0       0.00       0.00          0          0          0    0.00000   -1.00000    1.00000      0.900    0    0    0    0    0    0    0    1
  dins             :          0       0.00       0.00          0          0          0    0.00000   -1.00000    1.00000      0.900    0    0    0    0    0    0    0    1
  trustregion      :          0       0.00       0.00          0          0          0    0.00000   -1.00000    1.00000      0.900    0    0    0    0    0    0    0    0
LP                 :       Time      Calls Iterations  Iter/call   Iter/sec  Time-0-It Calls-0-It    ItLimit
  primal LP        :       0.00          0          0       0.00          -       0.00          0
  dual LP          :       0.35          1       1119    1119.00    3163.55       0.00          0
  lex dual LP      :       0.00          0          0       0.00          -
  barrier LP       :       0.00          0          0       0.00          -       0.00          0
  resolve instable :       0.00          0          0       0.00          -
  diving/probing LP:       0.01          0          0       0.00          -
  strong branching :       4.54         19      14024     738.11    3089.91          -          -         17
    (at root node) :          -         19      14024     738.11          -
  conflict analysis:       0.00          0          0       0.00          -
B&B Tree           :
  number of runs   :          1
  nodes            :          1 (1 internal, 0 leaves)
  feasible leaves  :          0
  infeas. leaves   :          0
  objective leaves :          0
  nodes (total)    :          1 (1 internal, 0 leaves)
  nodes left       :          2
  max depth        :          0
  max depth (total):          0
  backtracks       :          0 (0.0%)
  early backtracks :          0 (0.0%)
  nodes exc. ref.  :          0 (0.0%)
  delayed cutoffs  :          0
  repropagations   :          0 (0 domain reductions, 0 cutoffs)
  avg switch length:       1.00
  switching time   :       0.00
Estim. Tree Size   :         -1
Estimation Tree    : 3 nodes (1 visited, 1 internal, 0 leaves, 2 open), weight: 0.0000 completed 0.0000
Estimations        :      estim      value      trend resolution     smooth
  wbe              :         -1          -          -          -          -
  tree-profile     :         -1          -          -          -          -
  gap              :         -1    0.05607                     1           
  tree-weight      :         -1    0.00000                     1           
  leaf-frequency   :         -1   -0.50000                     1           
  ssg              :         -1    1.00000                     1           
  open-nodes       :         -1    2.00000                     1           
Root Node          :
  First LP value   : +5.24447608736609e+00
  First LP Iters   :       1119 (2964.96 Iter/sec)
  First LP Time    :       0.38
  Final Dual Bound : +5.43834345493701e+00
  Final Root Iters :       1119
  Root LP Estimate : +6.51248744107535e+00
Solution           :
  Solutions found  :         21 (3 improvements)
  First Solution   : +1.00000000000000e+02   (in run 1, after 1 nodes, 0.58 seconds, depth 2, found by <relaxation>)
  Gap First Sol.   :    1806.77 %
  Gap Last Sol.    :    1749.57 %
  Primal Bound     : +9.70000000000000e+01   (in run 1, after 1 nodes, 2.76 seconds, depth 2, found by <relaxation>)
  Dual Bound       : +5.43834345493701e+00
  Gap              :    1683.63 %
Integrals          :      Total       Avg%
  primal-dual      :     480.03      95.28
  primal-ref       :          -          - (not evaluated)
  dual-ref         :          -          - (not evaluated)
